267,341
893,618
857,648
789,193
699,349
681,166
713,199
1131,406
441,284
839,624
935,660
586,219
694,432
621,406
681,-14
850,283
801,406
1020,160
769,392
494,501
699,524
831,406
681,706
766,433
441,406
505,164
633,441
196,563
385,452
552,805
196,249
787,460
850,283
444,443
839,188
477,806
